Li6 P2 S8
1.0
   5.0542621341536620    2.6455683897332660    1.3448877904707746
   0.0000000000000000    5.8798047956933575    1.0977987528443600
   0.0000000000000000    0.0000000000000000    9.8874772804578441
Li P S
6 2 8
direct
   0.1981439680876207    0.3545666113334169    0.2860721484170192 Li
   0.1715690137175425    0.0165713623605681    0.6776871492418874 Li
   0.9521527951955129    0.1302888154734107    0.0773609923664273 Li
   0.6932688319751801    0.6693123760830416    0.0101643257727144 Li
   0.5093583174709373    0.5252324529914316    0.4411402625664287 Li
   0.8828628074992954    0.6815031727270332    0.7085339180562669 Li
   0.4534885235746612    0.3799102487052849    0.8067738827759607 P
   0.7233929056171137    0.9264864981316563    0.3151752349125934 P
   0.8102951106770929    0.0760135348007131    0.7355360233433188 S
   0.4446105480687552    0.4377194106398665    1.0062060410238542 S
   0.4184382642349275    0.7010864072691335    0.6827695770560112 S
   0.1510195296806973    0.3053753430194242    0.8114633833337690 S
   0.9882502546895160    1.0226328004203056    0.3543759295564479 S
   0.9235238531095692    0.6045547376270972    0.2123258737784297 S
   0.5447862966880573    0.8612071392703485    0.5098569039929230 S
   0.4896757555737931    1.2228994669791946    0.1905371918575865 S
