Li6 P2 S8
1.0
   6.0537050948879561   -0.0229981431115828   -0.0282074545658955
   0.0000000000000000    6.2631626108637279   -0.0190777453782397
   0.0000000000000000    0.0000000000000000    7.5720068280413244
Li P S
6 2 8
direct
   0.2352102037261847    0.9107109205014345    0.2087241346153945 Li
   0.2462362401607745    0.9024613918363731    0.6903513364931758 Li
   0.7142815244482039    0.0634493067881036    0.9570487605915151 Li
   0.7503004793918572    0.5431859350295779    0.2081700848687182 Li
   0.2141761236506916    0.3723148785805898    0.4551266421732997 Li
   0.7478847881386131    0.5372593313386242    0.6830466742513127 Li
   0.7299459089910408    0.0218970056248482    0.4549091003749722 P
   0.2270547818937639    0.3833629819080605    0.9474474879642194 P
   0.6218192187379139   -0.1280142964346938    0.2320368853236336 S
   0.6138753899824050   -0.1288717079529176    0.6736209305038986 S
   0.6179075896462870    0.3269867741885871    0.4540509307944767 S
   1.0661352182195638    0.0102967198948056    0.4606454605076467 S
   0.1116469789660698    0.0785112591953273    0.9460609487110008 S
   0.1180538033152427    0.5345765538436668    0.7262901572501972 S
   0.1154767923948690    0.5338828174736203    1.1678915698910257 S
   0.5634621033337370    0.3926976397123476    0.9486038312376129 S
