Li6 P2 S8
1.0
   5.0542621341536620    2.6455683897332660    1.3448877904707746
   0.0000000000000000    5.8798047956933575    1.0977987528443600
   0.0000000000000000    0.0000000000000000    9.8874772804578441
Li P S
6 2 8
direct
   0.2140482464522271    0.3455115966243387    0.2645675684570504 Li
   0.1930637659075697    0.0428673281262863    0.6918643548136761 Li
   0.9332690478619139    0.1028839687442183    0.0492203709370099 Li
   0.7205041083061301    0.6886122846522952    0.9833808546744230 Li
   0.5124923367364403    0.5617769557364564    0.4420404431728369 Li
   0.8729403954378830    0.6577363668336877    0.6876741984252225 Li
   0.4785644429666702    0.3428127037718524    0.8499194421289362 P
   0.8025375105990590    0.9114452819363127    0.3459192283770780 P
   0.1330601289730542    0.3214265637091240    0.8609694593421269 S
   0.8009508057347294   -0.0062613447239042    0.8124855886700494 S
   0.4995470450247180    0.5986815506100378    0.6883947529685247 S
   0.4920010423342233    0.4378496474849962    1.0323084131504257 S
   0.8714595438063469    0.7529779865976937    0.1667405865489892 S
   0.4275102439522397    1.0014820046020889    0.4411822032018198 S
   1.0730545949840631    0.6233624121118123    0.4574776325567389 S
   0.8415499757786906    1.2380131178722915    0.2905586928915688 S
