Li6 P2 S8                               
   1.0000000000000000     
     6.3034905878945331    0.0000000000000004   -0.0604661665441240
     0.0000000000000000    5.9950693894493137    0.0000000000000004
     0.0448238597233792    0.0000000000000000    7.6109957647472264
   Li   P    S 
     6     2     8
Direct
  0.8120595062297427  0.3402982751851936  0.0069930941798620
  0.1879404937702575  0.8402982751851935 -0.0069930941798618
  0.6570255341713230  0.8564550189843644  0.2514175235803209
  0.3429744658286764  0.3564550189843642  0.7485824764196866
  0.8114476782880840  0.3405925850752860  0.4943056623649007
  0.1885523217119162  0.8405925850752859  0.5056943376350990
  0.3179488565322000  0.3415211948007779  0.2490715656416912
  0.6820511434677994  0.8415211948007779  0.7509284343583090
  0.3094701335139633  0.0017649117225373  0.2497132687738332
  0.1682118041031116  0.4521262212069334  0.0283704280056680
  0.6209144033839151  0.4568582378353729  0.2502160174319226
  0.1675697469576541  0.4530241853474565  0.4682515681702286
  0.6905298664860366  0.5017649117225371  0.7502867312261666
  0.8317881958968883  0.9521262212069334  0.9716295719943323
  0.3790855966160847  0.9568582378353732  0.7497839825680773
  0.8324302530423457 -0.0469758146525435  0.5317484318297718

  0.00000000E+00  0.00000000E+00  0.00000000E+00
  0.00000000E+00  0.00000000E+00  0.00000000E+00
  0.00000000E+00  0.00000000E+00  0.00000000E+00
  0.00000000E+00  0.00000000E+00  0.00000000E+00
  0.00000000E+00  0.00000000E+00  0.00000000E+00
  0.00000000E+00  0.00000000E+00  0.00000000E+00
  0.00000000E+00  0.00000000E+00  0.00000000E+00
  0.00000000E+00  0.00000000E+00  0.00000000E+00
  0.00000000E+00  0.00000000E+00  0.00000000E+00
  0.00000000E+00  0.00000000E+00  0.00000000E+00
  0.00000000E+00  0.00000000E+00  0.00000000E+00
  0.00000000E+00  0.00000000E+00  0.00000000E+00
  0.00000000E+00  0.00000000E+00  0.00000000E+00
  0.00000000E+00  0.00000000E+00  0.00000000E+00
  0.00000000E+00  0.00000000E+00  0.00000000E+00
  0.00000000E+00  0.00000000E+00  0.00000000E+00
