Li6 P2 S8
1.0
   6.1065390136134656    0.0000000000000004   -0.0775907703942332
   0.0000000000000000    5.9290617423292327    0.0000000000000004
   0.0000000000000000    0.0000000000000000    7.8067487502504767
Li P S
6 2 8
direct
   0.7843272766936664    0.3584888612800321    0.9884159347258715 Li
   0.2156727233063336    0.8584888612800320    0.0115840652741286 Li
   0.5134966002419716    0.7892667395513716    0.2327486122628209 Li
   0.4865033997580284    0.2892667395513717    0.7672513877371793 Li
   0.8341363461775106    0.3478590503424637    0.4301805224001001 Li
   0.1658636538224894    0.8478590503424636    0.5698194775998999 Li
   0.2721771147639602    0.3407328332550555    0.2597185639427880 P
   0.7278228852360398    0.8407328332550554    0.7402814360572121 P
   0.1767414893211965    0.0278814169772106    0.3342229398017915 S
   0.1137986328690851    0.4261902324007311    0.0385256099922412 S
   0.6016254091613730    0.3635241982734294    0.2205739040159538 S
   0.2024947696103087    0.5886972980776356    0.4316495762340405 S
   0.8232585106788035    0.5278814169772106    0.6657770601982088 S
   0.8862013671309149    0.9261902324007310    0.9614743900077587 S
   0.3983745908386272    0.8635241982734294    0.7794260959840462 S
   0.7975052303896915    1.0886972980776355    0.5683504237659596 S
