Li6 P2 S8                               
   1.0000000000000000     
     5.1346862802539972    3.1137043172905829   -0.0821344674888155
     0.1534448168010845    5.8050702395752154    1.4334855210291633
     0.0267900499101998   -0.5684191453274352    9.8710885387590910
   Li   P    S 
     6     2     8
Direct
  0.2140482464522271  0.4404401569234343  0.7354324315429495
  0.1930637659075695  0.7640689059661442  0.3081356451863238
 -0.0667309521380861  0.9638469833938679 -0.0492203709370099
  0.7205041083061300  0.5908836070415746  0.0166191453255772
  0.5124923367364401 -0.0742692924728965  0.5579595568271629
  0.8729403954378828  0.4693232377284294  0.3123258015747775
  0.4785644429666701  0.1786228532614776  0.1500805578710638
  0.8025375105990588  0.2860172074646281  0.6540807716229219
  0.4995470450247179  0.9017714043652441  0.3116052470314752
  0.4920010423342231  0.0701493101807806 -0.0323084131504256
  0.1330601289730541  0.5455133073178218  0.1390305406578732
  0.8009508057347292  0.2053105389891748  0.1875144113299505
  0.8415499757786906  0.9204369063490176  0.7094413071084311
  0.8714595438063468  0.3755624695959594  0.8332594134510107
  0.4275102439522396  0.5710077514456713  0.5588177967981801
  0.0730545949840632  0.3035829929041244  0.5425223674432610

  0.00000000E+00  0.00000000E+00  0.00000000E+00
  0.00000000E+00  0.00000000E+00  0.00000000E+00
  0.00000000E+00  0.00000000E+00  0.00000000E+00
  0.00000000E+00  0.00000000E+00  0.00000000E+00
  0.00000000E+00  0.00000000E+00  0.00000000E+00
  0.00000000E+00  0.00000000E+00  0.00000000E+00
  0.00000000E+00  0.00000000E+00  0.00000000E+00
  0.00000000E+00  0.00000000E+00  0.00000000E+00
  0.00000000E+00  0.00000000E+00  0.00000000E+00
  0.00000000E+00  0.00000000E+00  0.00000000E+00
  0.00000000E+00  0.00000000E+00  0.00000000E+00
  0.00000000E+00  0.00000000E+00  0.00000000E+00
  0.00000000E+00  0.00000000E+00  0.00000000E+00
  0.00000000E+00  0.00000000E+00  0.00000000E+00
  0.00000000E+00  0.00000000E+00  0.00000000E+00
  0.00000000E+00  0.00000000E+00  0.00000000E+00
