Li6 P2 S8
1.0
   5.0430979457611045    2.9022804591693125    0.0121158969405829
   0.0000000000000000    5.7239969404835769    1.7127498828027885
   0.0000000000000000    0.0000000000000000    9.9623945695929432
Li P S
6 2 8
direct
   0.1461523035178267    0.5947462540618895    0.7777677542535582 Li
   0.1930127745362764    0.7649351217536369    0.3934642260335461 Li
   0.9906240327023993    0.8798463174509360    0.0242062553244151 Li
   0.6930333539440755    0.5175358919015303    0.9566325120331332 Li
   0.5764020951217076    0.0425447624702375    0.6025975854933885 Li
   0.8692389993667361    0.4337108125794052    0.2552913390634699 Li
   0.4684686934882215    0.0927329136303673    0.1495612008392637 P
   0.8165144392932654    0.3662960336980039    0.6360085701597689 P
   0.5810625941258665   -0.1970502686547926    0.3424595150723961 S
   0.3567771587220936   -0.0373735515897478    0.0064843813852826 S
   0.1565698089817094    0.4471821145952051    0.1467936418960359 S
   0.7803447231281380    0.1537850205227678    0.0946437557491070 S
   0.8575361382976092   -0.0037097083241261    0.6730597091941669 S
   0.7549513353433138    0.4367580540197116    0.8242784511542603 S
   0.4833781131791561    0.6627585262213530    0.4947511764863779 S
   1.1424866711075645    0.3575700461180696    0.5572961355453394 S
