Li6 P2 S8
1.0
   6.3888529808488954    0.0000000000000004   -0.0211632935976808
   0.0000000000000000    6.1046557664088708    0.0000000000000004
   0.0000000000000000    0.0000000000000000    7.3349670869467403
Li P S
6 2 8
direct
   0.1915150314263769    0.9283404374228902    0.0144911832006243 Li
   0.8084849685736231    0.4283404374228903    0.9855088167993759 Li
   0.3538095221052479    0.4042679726176774    0.2509849558762083 Li
   0.6461904778947520    0.9042679726176774    0.7490150441237917 Li
   0.8150094441336859    0.4357696645704054    0.5110902315539558 Li
   0.1849905558663138    0.9357696645704053    0.4889097684460442 Li
   0.3164486493972634    0.4200550183653105    0.7435705469851246 P
   0.6835513506027365    0.9200550183653106    0.2564294530148756 P
   0.1634684601907429    0.3111385413591981    0.5171709814485251 S
   0.1658168226638364    0.3098060096997262    0.9700018706516166 S
   0.3126750378601778    0.7534630814897575    0.7444162789434031 S
   0.6135373467805045    0.3027430451105521    0.7430037334291248 S
   0.8365315398092570    0.8111385413591981    0.4828290185514749 S
   0.8341831773361633    0.8098060096997262    0.0299981293483836 S
   0.6873249621398221    1.2534630814897576    0.2555837210565970 S
   0.3864626532194954    0.8027430451105522    0.2569962665708752 S
