Li6 P2 S8
1.0
   6.3037373745774703    0.0000000000000004   -0.0233422648137485
   0.0000000000000000    5.9950693894493137    0.0000000000000004
   0.0000000000000000    0.0000000000000000    7.6111277554249934
Li P S
6 2 8
direct
   0.8300407260073116    0.2954363806534199    0.9992362324098287 Li
   0.1699592739926885    0.7954363806534200    0.0007637675901715 Li
   0.6458127981271017    0.8353234016825226    0.2536724723556956 Li
   0.3541872018728985    0.3353234016825227    0.7463275276443044 Li
   0.7927825071864589    0.3590992656171546    0.4722882374088715 Li
   0.2072174928135411    0.8590992656171546    0.5277117625911286 Li
   0.3160837674733477    0.3529823234986090    0.2335613572996621 P
   0.6839162325266522    0.8529823234986090    0.7664386427003380 P
   0.5723010368004841    0.1557345128094557    0.2843289792088894 S
   0.0661629687787513    0.1532299531494526    0.1705409001653256 S
   0.2523690818946142    0.5348306619052893    0.4528350698252577 S
   0.3727005176512926    0.5643589384015638    0.0305190215587628 S
   0.4276989631995161    0.6557345128094557    0.7156710207911109 S
   0.9338370312212487    0.6532299531494526    0.8294590998346746 S
   0.7476309181053858    1.0348306619052894    0.5471649301747427 S
   0.6272994823487074    1.0643589384015639    0.9694809784412373 S
