Li6 P2 S8
1.0
   6.3037373745774703    0.0000000000000004   -0.0233422648137485
   0.0000000000000000    5.9950693894493137    0.0000000000000004
   0.0000000000000000    0.0000000000000000    7.6111277554249934
Li P S
6 2 8
direct
   0.8120595062297431    0.3402982751851936    0.0069930941798619 Li
   0.1879404937702569    0.8402982751851936    0.9930069058201381 Li
   0.6570255341713235    0.8564550189843644    0.2514175235803208 Li
   0.3429744658286766    0.3564550189843643    0.7485824764196795 Li
   0.8114476782880843    0.3405925850752861    0.4943056623649006 Li
   0.1885523217119159    0.8405925850752860    0.5056943376350994 Li
   0.3179488565322003    0.3415211948007779    0.2490715656416912 P
   0.6820511434678000    0.8415211948007779    0.7509284343583091 P
   0.3094701335139637    0.0017649117225373    0.2497132687738332 S
   0.1682118041031119    0.4521262212069335    0.0283704280056679 S
   0.1675697469576544    0.4530241853474566    0.4682515681702287 S
   0.6209144033839155    0.4568582378353730    0.2502160174319225 S
   0.6905298664860364    0.5017649117225375    0.7502867312261668 S
   0.8317881958968883    0.9521262212069336    0.9716295719943323 S
   0.8324302530423457    0.9530241853474566    0.5317484318297715 S
   0.3790855966160845    0.9568582378353730    0.7497839825680777 S
